17	4
17	14	20	22	
0	0	0	0	0	3	2	3	4	
3	9	3	0	1	3	10	12	17	
10	0	0	8	9	3	10	17	17	
6	7	0	0	6	3	5	6	11	
9	3	4	7	7	3	8	16	17	
175	0	3	0	10	3	7	8	9	
50	1	9	4	10	3	14	17	17	
25	4	3	6	1	3	17	17	17	
150	4	1	0	7	3	10	12	17	
250	0	2	0	10	3	13	16	17	
100	0	0	10	7	3	12	14	16	
75	1	4	0	0	3	17	17	17	
9	3	2	1	9	3	14	17	17	
10	1	3	0	5	1	15	
3	6	0	5	4	3	17	17	17	
10	4	5	10	6	1	17	
0	0	0	0	0	0	
